<number of tasks>
20


<number of equipment>
5


<cycle time>
1000


<investment costs>
1,5089
2,7798
3,28994
4,9544
5,10895


<task times>
1,-1,509,257,-1,512
2,563,-1,269,-1,-1
3,-1,564,-1,544,526
4,590,-1,260,-1,-1
5,546,-1,268,-1,-1
6,-1,475,274,-1,467
7,-1,496,-1,412,520
8,-1,601,-1,584,546
9,-1,473,-1,544,519
10,-1,564,280,-1,539
11,-1,559,375,-1,524
12,-1,519,-1,493,517
13,-1,464,-1,538,485
14,-1,471,-1,535,464
15,-1,397,254,-1,489
16,-1,500,-1,495,453
17,-1,591,-1,589,560
18,-1,523,-1,510,403
19,-1,539,411,-1,524
20,-1,530,284,-1,515


<precedence relations>
1,5
1,13
2,5
2,6
2,7
3,5
3,7
3,13
4,5
4,7
4,13
5,8
5,10
6,9
6,10
6,11
7,9
7,20
10,12
10,14
10,15
11,13
12,16
12,17
15,18
16,19
17,20


<task types>
1,2
2,1
3,3
4,1
5,1
6,2
7,3
8,3
9,3
10,2
11,2
12,3
13,3
14,3
15,2
16,3
17,3
18,3
19,2
20,2


<line depot>
1,1
2,12
3,2
4,0
5,0


<processing costs>
1,7200
2,14400
3,14400
4,7200
5,14400


<saving costs>
1,508
2,779
3,2899
4,954
5,1089


<end>
